SECTION Graph
Nodes 243
Edges 497
E 1 32 7
E 1 215 10
E 2 3 14
E 2 216 10
E 3 4 1
E 3 11 23
E 4 12 23
E 5 6 1
E 5 110 2
E 6 7 14
E 6 112 2
E 7 8 1
E 7 116 2
E 8 118 2
E 8 120 7
E 9 10 1
E 9 13 23
E 9 36 7
E 9 215 13
E 10 11 14
E 10 14 23
E 10 216 13
E 11 12 1
E 11 15 23
E 12 16 23
E 13 14 1
E 13 17 23
E 13 40 7
E 14 15 14
E 14 18 23
E 15 16 1
E 15 19 23
E 16 20 23
E 17 18 1
E 17 21 23
E 17 44 7
E 18 19 14
E 18 22 23
E 19 20 1
E 19 23 23
E 20 24 23
E 21 22 1
E 21 25 23
E 21 48 7
E 22 23 14
E 22 26 23
E 23 24 1
E 23 27 23
E 24 28 23
E 25 26 1
E 25 52 7
E 26 27 14
E 27 28 1
E 29 30 1
E 29 206 7
E 29 209 4
E 30 31 14
E 30 210 4
E 31 32 1
E 31 213 4
E 32 214 4
E 33 34 1
E 33 171 21
E 33 185 7
E 33 203 13
E 34 35 14
E 34 173 21
E 34 204 13
E 35 36 1
E 35 39 23
E 35 211 13
E 36 40 23
E 36 212 13
E 37 38 1
E 37 151 21
E 37 163 7
E 37 171 2
E 38 39 14
E 38 153 21
E 38 173 2
E 39 40 1
E 39 43 23
E 40 44 23
E 41 42 1
E 41 45 23
E 41 145 7
E 41 151 2
E 42 43 14
E 42 46 23
E 42 153 2
E 43 44 1
E 43 47 23
E 44 48 23
E 45 46 1
E 45 49 23
E 45 60 7
E 46 47 14
E 46 50 23
E 47 48 1
E 47 51 23
E 48 52 23
E 49 50 1
E 49 64 7
E 50 51 14
E 51 52 1
E 53 54 1
E 53 191 2
E 54 192 2
E 54 198 6
E 55 56 1
E 55 202 6
E 55 207 2
E 56 208 2
E 57 58 1
E 57 111 21
E 57 115 7
E 57 122 2
E 58 59 14
E 58 113 21
E 58 123 2
E 59 60 1
E 59 117 21
E 59 130 2
E 60 119 21
E 60 131 2
E 61 62 1
E 61 111 2
E 62 63 14
E 62 113 2
E 63 64 1
E 63 117 2
E 64 119 2
E 65 66 6
E 65 177 11
E 65 183 6
E 65 190 2
E 66 67 2
E 66 189 6
E 66 195 4
E 67 190 6
E 67 197 4
E 67 200 6
E 68 69 1
E 68 166 6
E 69 70 14
E 69 167 6
E 70 71 1
E 70 179 6
E 71 181 6
E 71 191 7
E 72 73 1
E 72 76 23
E 72 95 7
E 72 158 11
E 73 74 14
E 73 77 23
E 73 159 11
E 74 75 1
E 74 160 2
E 74 174 11
E 75 162 2
E 75 170 7
E 75 175 11
E 76 77 1
E 76 99 7
E 76 132 2
E 77 78 14
E 77 134 2
E 78 79 1
E 78 142 2
E 78 160 21
E 79 144 2
E 79 150 7
E 79 162 21
E 80 81 1
E 80 84 23
E 80 103 7
E 80 132 21
E 81 82 14
E 81 85 23
E 81 134 21
E 82 83 1
E 82 127 2
E 82 142 21
E 83 129 2
E 83 136 7
E 83 144 21
E 84 85 1
E 84 108 2
E 85 86 14
E 85 109 2
E 86 87 1
E 86 114 2
E 86 127 21
E 87 115 2
E 87 122 7
E 87 129 21
E 88 89 1
E 88 108 21
E 89 90 14
E 89 109 21
E 90 91 1
E 90 114 21
E 91 111 7
E 91 115 21
E 92 93 1
E 92 96 23
E 92 107 7
E 93 94 14
E 93 97 23
E 94 95 1
E 94 98 23
E 95 99 23
E 96 97 1
E 96 118 7
E 96 120 2
E 97 98 14
E 97 121 2
E 98 99 1
E 98 126 2
E 99 128 2
E 100 101 1
E 100 120 21
E 101 102 14
E 101 121 21
E 102 103 1
E 102 126 21
E 103 128 21
E 104 105 1
E 104 110 23
E 105 106 14
E 105 112 23
E 106 107 1
E 106 116 23
E 107 118 23
E 108 109 1
E 109 114 14
E 110 112 1
E 111 113 1
E 112 116 14
E 113 117 14
E 114 115 1
E 116 118 1
E 117 119 1
E 120 121 1
E 121 126 14
E 122 123 1
E 122 133 21
E 123 124 6
E 123 135 21
E 124 125 2
E 124 138 21
E 125 130 6
E 125 140 21
E 126 128 1
E 127 129 1
E 128 132 7
E 129 133 7
E 130 131 1
E 130 143 21
E 131 145 21
E 132 134 1
E 133 135 1
E 133 136 2
E 134 142 14
E 135 137 2
E 135 138 6
E 136 137 1
E 136 148 21
E 137 139 6
E 137 149 21
E 138 139 2
E 138 140 2
E 139 141 2
E 139 154 21
E 140 141 2
E 140 143 6
E 141 146 6
E 141 156 21
E 142 144 1
E 143 145 1
E 143 146 2
E 144 148 7
E 145 147 2
E 146 147 1
E 146 161 21
E 147 151 7
E 147 163 21
E 148 149 1
E 148 150 2
E 149 152 2
E 149 154 6
E 150 152 1
E 150 168 21
E 151 153 1
E 152 155 6
E 152 169 21
E 154 155 2
E 154 156 2
E 155 157 2
E 155 176 21
E 156 157 2
E 156 161 6
E 157 164 6
E 157 178 21
E 158 159 1
E 158 166 6
E 159 167 6
E 159 174 14
E 160 162 1
E 161 163 1
E 161 164 2
E 162 168 7
E 163 165 2
E 164 165 1
E 164 184 21
E 165 171 7
E 165 185 21
E 166 167 1
E 167 179 14
E 168 169 1
E 168 170 2
E 169 172 2
E 169 176 6
E 170 172 1
E 170 182 11
E 171 173 1
E 172 177 6
E 172 183 11
E 174 175 1
E 174 179 6
E 175 181 6
E 175 182 7
E 176 177 2
E 176 178 2
E 177 180 2
E 178 180 2
E 178 184 6
E 179 181 1
E 180 186 6
E 180 190 11
E 181 188 7
E 182 183 1
E 182 188 6
E 183 189 6
E 184 185 1
E 184 186 2
E 185 187 2
E 186 187 1
E 186 193 11
E 187 194 11
E 188 189 1
E 188 191 6
E 189 192 6
E 190 193 6
E 191 192 1
E 192 196 6
E 193 194 1
E 193 200 6
E 194 201 6
E 194 203 7
E 195 196 2
E 195 197 2
E 196 198 2
E 196 199 2
E 197 199 2
E 197 205 6
E 198 202 2
E 199 202 2
E 199 207 6
E 200 201 1
E 200 205 4
E 201 206 4
E 201 209 7
E 203 204 1
E 203 209 6
E 204 210 6
E 204 211 14
E 205 206 1
E 205 207 2
E 206 208 2
E 207 208 1
E 209 210 1
E 210 213 14
E 211 212 1
E 211 213 6
E 212 214 6
E 212 215 7
E 213 214 1
E 215 216 1
E 1 217 100000
E 2 217 100000
E 3 217 100000
E 4 217 100000
E 5 218 100000
E 6 218 100000
E 7 218 100000
E 8 218 100000
E 9 219 100000
E 10 219 100000
E 11 219 100000
E 12 219 100000
E 13 220 100000
E 14 220 100000
E 15 220 100000
E 16 220 100000
E 17 221 100000
E 18 221 100000
E 19 221 100000
E 20 221 100000
E 21 222 100000
E 22 222 100000
E 23 222 100000
E 24 222 100000
E 25 223 100000
E 26 223 100000
E 27 223 100000
E 28 223 100000
E 29 224 100000
E 30 224 100000
E 31 224 100000
E 32 224 100000
E 33 225 100000
E 34 225 100000
E 35 225 100000
E 36 225 100000
E 37 226 100000
E 38 226 100000
E 39 226 100000
E 40 226 100000
E 41 227 100000
E 42 227 100000
E 43 227 100000
E 44 227 100000
E 45 228 100000
E 46 228 100000
E 47 228 100000
E 48 228 100000
E 49 229 100000
E 50 229 100000
E 51 229 100000
E 52 229 100000
E 53 230 100000
E 54 230 100000
E 55 230 100000
E 56 230 100000
E 57 231 100000
E 58 231 100000
E 59 231 100000
E 60 231 100000
E 61 232 100000
E 62 232 100000
E 63 232 100000
E 64 232 100000
E 65 233 100000
E 66 233 100000
E 67 233 100000
E 68 234 100000
E 69 234 100000
E 70 234 100000
E 71 234 100000
E 72 235 100000
E 73 235 100000
E 74 235 100000
E 75 235 100000
E 76 236 100000
E 77 236 100000
E 78 236 100000
E 79 236 100000
E 80 237 100000
E 81 237 100000
E 82 237 100000
E 83 237 100000
E 84 238 100000
E 85 238 100000
E 86 238 100000
E 87 238 100000
E 88 239 100000
E 89 239 100000
E 90 239 100000
E 91 239 100000
E 92 240 100000
E 93 240 100000
E 94 240 100000
E 95 240 100000
E 96 241 100000
E 97 241 100000
E 98 241 100000
E 99 241 100000
E 100 242 100000
E 101 242 100000
E 102 242 100000
E 103 242 100000
E 104 243 100000
E 105 243 100000
E 106 243 100000
E 107 243 100000
END

SECTION Terminals
Terminals 27
T 217
T 218
T 219
T 220
T 221
T 222
T 223
T 224
T 225
T 226
T 227
T 228
T 229
T 230
T 231
T 232
T 233
T 234
T 235
T 236
T 237
T 238
T 239
T 240
T 241
T 242
T 243
END

SECTION Tree Decomposition
c We do not guarantee that this tree decomposition has minimum width.
s td 200 17 243
b 1 1 217 32 215
b 2 2 216 217 3
b 3 88 89 108 239
b 4 100 101 242 120
b 5 28 223 27 24
b 6 104 243 105 110
b 7 119 117 60 64
b 8 124 125 138 123
b 9 127 129 86 82
b 10 131 60 130 145
b 11 53 230 54 191
b 12 153 42 151 38
b 13 158 166 159 72
b 14 160 162 74 78
b 15 173 34 38 171
b 16 187 185 186 194
b 17 195 66 197 196
b 18 198 202 54 196
b 19 208 56 207 206
b 20 4 217 3 12
b 21 214 212 213 32
b 22 61 232 62 111
b 23 233 66 67 65
b 24 68 234 69 166
b 25 5 218 6 110
b 26 219 9 11 10 12
b 27 218 6 7 110 8
b 28 235 73 74 72 75
b 29 216 217 3 10 215
b 30 6 7 112 110 8
b 31 89 108 239 90 109
b 32 91 239 90 115 111
b 33 92 107 96 93 240
b 34 211 212 35 213 204
b 35 210 30 209 213 204
b 36 94 95 93 240 98
b 37 52 51 229 48 25
b 38 243 105 106 110 107
b 39 101 242 102 120 121
b 40 205 207 197 200 206
b 41 241 97 96 98 99
b 42 203 209 204 33 194
b 43 103 242 102 128 80
b 44 26 223 27 22 25
b 45 105 106 112 110 107
b 46 108 239 90 109 84
b 47 106 112 110 116 107
b 48 7 112 110 116 8
b 49 113 62 117 58 111
b 50 29 224 30 209 206
b 51 114 90 109 115 86
b 52 193 190 186 194 200
b 53 192 54 196 189 191
b 54 112 110 116 8 107
b 55 116 8 118 107
b 56 8 118 107 120
b 57 118 107 96 120
b 58 125 140 138 130 123
b 59 122 87 57 123 133
b 60 184 185 186 164 178
b 61 107 96 93 240 120
b 62 31 224 30 213 32
b 63 181 179 71 175 188
b 64 180 190 186 178 177
b 65 237 81 82 83 80
b 66 126 102 98 121 128
b 67 236 76 77 78 79
b 68 176 155 178 169 177
b 69 132 128 76 80 134
b 70 135 138 137 123 133
b 71 170 172 75 182 168
b 72 136 83 148 137 133
b 73 139 138 137 141 154
b 74 142 144 82 78 134
b 75 143 140 130 145 146
b 76 147 151 163 145 146
b 77 149 148 137 152 154
b 78 202 199 55 54 196
b 79 232 63 62 64 111
b 80 150 168 79 148 152
b 81 156 161 157 141 154
b 82 230 56 55 54 191
b 83 165 185 171 163 164
b 84 167 69 166 179 159
b 85 231 58 59 60 57
b 86 174 179 175 159 74
b 87 183 172 182 65 189
b 88 49 229 50 45 64
b 89 201 209 194 200 206
b 90 228 46 48 47 45
b 91 227 43 41 42 44
b 92 221 17 18 19 20
b 93 225 34 35 36 33
b 94 222 23 24 22 21
b 95 226 37 40 38 39
b 96 223 27 24 22 25
b 97 234 70 69 166 71
b 98 27 23 24 22 25
b 99 238 84 86 87 85
b 100 16 220 15 12 20
b 101 63 62 117 64 111
b 102 70 69 166 179 71
b 103 62 117 58 64 111
b 104 69 166 179 71 159
b 105 166 179 71 159 72
b 106 23 24 22 19 25 21
b 107 14 220 15 10 18 13
b 108 97 96 93 98 121 99
b 109 24 22 19 20 25 21
b 110 95 93 240 98 99 72
b 111 217 3 10 12 32 215
b 112 239 90 109 115 84 111
b 113 3 11 10 12 32 215
b 114 51 229 50 48 47 25
b 115 129 86 87 82 83 133
b 116 90 109 115 84 86 111
b 117 117 58 59 60 64 111
b 118 46 50 48 47 42 45
b 119 109 115 84 86 85 111
b 120 22 18 19 20 25 21
b 121 43 41 47 42 44 39
b 122 162 74 75 168 78 79
b 123 199 55 207 54 197 196
b 124 242 102 120 121 128 80
b 125 56 55 207 54 206 191
b 126 102 98 120 121 128 80
b 127 224 30 209 213 32 206
b 128 66 67 197 196 65 189
b 129 30 209 213 204 32 206
b 130 73 159 74 72 77 75
b 131 81 85 82 83 80 134
b 132 37 40 151 38 39 171 163
b 133 212 35 213 204 36 32 215
b 134 96 93 240 98 120 121 99
b 135 9 11 10 12 13 36 215
b 136 58 59 60 57 64 111 123
b 137 93 240 98 120 121 99 72
b 138 115 84 86 87 85 57 111
b 139 229 50 48 47 25 45 64
b 140 98 120 121 99 128 72 80
b 141 99 128 76 72 80
b 142 128 76 72 80 134
b 143 179 71 175 159 188 74 72
b 144 34 35 204 36 38 33 171
b 145 140 138 130 123 141 145 146
b 146 161 157 163 164 141 146 154
b 147 59 60 130 57 64 111 123
b 148 155 157 178 152 154 169 177
b 149 50 48 47 42 25 45 64
b 150 67 197 196 190 200 65 189
b 151 55 207 54 197 196 206 191
b 152 144 82 83 78 79 134 148
b 153 207 54 197 196 200 206 191
b 154 17 18 19 20 13 21 44
b 155 54 197 196 200 206 189 191
b 156 220 15 10 12 18 20 13
b 157 71 175 159 188 74 72 191
b 158 76 72 77 78 79 80 134
b 159 84 86 87 85 80 57 111
b 160 209 213 204 32 33 194 200 206
b 161 15 11 10 12 18 19 20 13
b 162 185 186 33 171 194 163 164 178
b 163 175 159 188 74 72 75 182 191
b 164 60 130 45 57 64 111 123 145
b 165 41 47 42 44 151 39 45 145
b 166 159 188 74 72 77 75 182 191
b 167 48 47 42 25 21 44 45 64
b 168 188 74 72 77 75 182 189 191
b 169 197 196 190 200 206 65 189 191
b 170 172 75 182 168 65 169 177 189
b 171 86 87 85 82 83 80 57 111 133
b 172 138 130 137 123 133 141 145 146 154
b 173 40 13 44 151 36 38 39 171 163
b 174 87 85 82 83 80 57 111 123 133
b 175 85 82 83 80 134 57 111 123 133
b 176 35 213 204 36 32 38 39 215 33 171
b 177 47 42 25 21 44 151 39 45 64 145
b 178 190 186 194 200 206 178 65 177 189 191
b 179 11 10 12 18 19 20 13 36 32 215
b 180 74 72 77 75 182 168 78 79 189 191
b 181 157 163 164 178 141 146 152 154 169 177
b 182 42 25 21 44 151 38 39 45 64 145
b 183 18 19 20 13 25 21 44 36 32 215
b 184 82 83 78 79 80 134 148 57 111 123 133
b 185 72 77 75 182 168 78 79 80 134 189 191
b 186 83 78 79 80 134 148 137 57 111 123 133
b 187 130 137 45 57 64 111 123 133 141 145 146 154
b 188 213 204 36 32 38 39 215 33 171 194 200 206
b 189 13 25 21 44 151 36 32 38 39 215 171 163
b 190 75 182 168 78 79 80 134 65 169 177 189 191
b 191 168 78 79 80 134 148 65 152 169 177 189 191
b 192 186 33 171 194 200 206 163 164 178 65 177 189 191
b 193 25 21 44 151 36 32 38 39 215 171 163 45 64 145
b 194 151 36 32 38 39 215 171 163 45 64 145 146
b 195 36 32 38 39 215 33 171 194 200 206 163 45 64 145 146
b 196 78 79 80 134 148 137 57 65 111 123 133 152 169 177 189 191
b 197 148 137 57 65 111 123 133 152 154 169 177 189 191
b 198 33 171 194 200 206 163 164 178 45 64 65 145 146 177 189 191
b 199 163 164 178 45 64 65 141 145 146 152 154 169 177 189 191
b 200 137 45 57 64 65 111 123 133 141 145 146 152 154 169 177 189 191
1 111
111 113
113 179
179 161
179 183
183 189
189 193
193 194
194 195
195 188
195 198
198 192
198 199
199 200
200 197
197 196
200 187
196 191
196 186
191 190
186 184
188 176
192 178
199 181
193 182
190 185
182 177
185 180
187 172
189 173
184 175
175 174
174 171
177 167
177 165
180 168
188 160
168 166
166 163
192 162
187 164
190 170
173 132
161 156
171 159
167 149
163 157
172 145
164 147
159 138
149 139
157 143
147 136
183 154
179 135
184 152
176 144
176 133
178 169
181 146
169 150
169 155
155 153
153 151
181 148
185 158
171 115
165 121
160 129
166 130
156 107
149 118
139 114
136 117
180 122
138 119
183 120
175 131
150 128
151 125
151 123
129 127
119 116
120 109
116 112
109 106
172 70
172 73
174 59
160 42
160 89
162 60
162 83
170 71
170 87
132 95
156 100
159 99
145 58
145 75
139 88
143 63
143 86
143 105
136 85
154 92
135 26
152 74
144 93
133 34
146 81
155 53
153 40
148 68
158 67
158 142
121 91
129 35
130 28
118 90
114 37
117 103
131 65
125 82
123 78
127 50
127 62
116 51
112 32
112 46
197 77
106 98
106 94
105 104
142 69
142 141
103 49
103 101
46 31
98 96
104 84
104 102
141 140
140 126
140 137
137 134
126 124
137 110
134 108
101 79
96 44
191 80
126 66
102 97
134 61
124 39
124 43
110 36
108 41
186 72
61 33
194 76
178 52
178 64
111 29
111 20
29 2
162 16
164 10
144 15
133 21
115 9
117 7
122 14
128 17
128 23
125 19
58 8
105 13
78 18
31 3
96 5
79 22
82 11
97 24
61 57
39 4
57 56
56 55
55 54
54 47
54 48
47 45
48 30
45 38
30 27
38 6
27 25
182 12
END

EOF
